couriers = 2;
items = 6;
n_edges = 43;
LOWER_BOUND = 8;
UPPER_BOUND = 40;
CAPACITY = [15, 10];
DEMAND = [3, 2, 6, 5, 4, 4];
starting_nd = [2, 2, 2, 2, 2, 2, 3, 3, 3, 3, 3, 3, 4, 4, 4, 4, 4, 4, 5, 5, 5, 5, 5, 5, 6, 6, 6, 6, 6, 6, 7, 7, 7, 7, 7, 7, 1, 1, 1, 1, 1, 1, 1];
ending_nd = [3, 4, 5, 6, 7, 8, 2, 4, 5, 6, 7, 8, 2, 3, 5, 6, 7, 8, 2, 3, 4, 6, 7, 8, 2, 3, 4, 5, 7, 8, 2, 3, 4, 5, 6, 8, 2, 3, 4, 5, 6, 7, 8];
weights = [3, 4, 5, 6, 6, 2, 3, 1, 4, 5, 7, 3, 4, 1, 5, 6, 6, 4, 4, 4, 5, 3, 3, 2, 6, 7, 8, 3, 2, 4, 6, 7, 8, 3, 2, 4, 2, 3, 4, 3, 4, 4, 0];
