COURIERS = 8;
ITEMS = 10;
LOWER_BOUND = 220;
UPPER_BOUND = 1191;
MAX_LOAD = [200, 180, 160, 185, 180, 200, 160, 200];
SIZE = [0, 10, 25, 18, 16, 14, 16, 24, 19, 23, 19];
D = [|0, 53, 24, 55, 54, 38, 75, 63, 110, 17, 40, 
|53, 0, 56, 86, 77, 81, 128, 107, 154, 70, 93, 
|24, 56, 0, 79, 31, 62, 87, 61, 107, 37, 37, 
|55, 86, 79, 0, 109, 17, 43, 110, 68, 43, 69, 
|55, 87, 31, 109, 0, 92, 116, 30, 77, 66, 40, 
|38, 81, 62, 17, 92, 0, 47, 93, 82, 26, 52, 
|75, 128, 87, 43, 116, 47, 0, 117, 52, 58, 76, 
|63, 116, 61, 110, 30, 93, 117, 0, 65, 67, 41, 
|110, 163, 107, 78, 77, 82, 52, 65, 0, 93, 70, 
|17, 70, 41, 43, 66, 26, 73, 67, 93, 0, 26, 
|40, 93, 37, 69, 40, 52, 76, 41, 70, 26, 0, 
|];
