couriers = 3;
items = 7;
n_edges = 57;
LOWER_BOUND = 8;
UPPER_BOUND = 51;
CAPACITY = [15, 10, 7];
DEMAND = [3, 2, 6, 8, 5, 4, 4];
starting_nd = [2, 2, 2, 2, 2, 2, 2, 3, 3, 3, 3, 3, 3, 3, 4, 4, 4, 4, 4, 4, 4, 5, 5, 5, 5, 5, 5, 5, 6, 6, 6, 6, 6, 6, 6, 7, 7, 7, 7, 7, 7, 7, 8, 8, 8, 8, 8, 8, 8, 1, 1, 1, 1, 1, 1, 1, 1];
ending_nd = [3, 4, 5, 6, 7, 8, 9, 2, 4, 5, 6, 7, 8, 9, 2, 3, 5, 6, 7, 8, 9, 2, 3, 4, 6, 7, 8, 9, 2, 3, 4, 5, 7, 8, 9, 2, 3, 4, 5, 6, 8, 9, 2, 3, 4, 5, 6, 7, 9, 2, 3, 4, 5, 6, 7, 8, 9];
weights = [3, 3, 6, 5, 6, 6, 2, 3, 6, 3, 4, 7, 7, 3, 3, 4, 7, 6, 3, 5, 3, 6, 3, 7, 5, 6, 7, 4, 5, 4, 6, 3, 3, 3, 3, 6, 7, 3, 6, 3, 2, 4, 6, 7, 5, 6, 3, 2, 4, 2, 3, 3, 4, 3, 4, 4, 0];
